1437453
6 30 7944
30 2 6204
2 28 6275
28 9 10294
9 25 14389
25 13 1644
13 5 6994
5 18 5422
18 4 7922
4 29 53285
29 14 53997
14 26 12452
26 16 23200
16 11 17050
11 22 10310
22 19 8375
19 20 59143
20 1 190821
1 24 54636
24 17 276644
17 10 52694
10 23 54017
23 12 132796
12 8 61690
8 27 98591
27 7 7370
7 3 5029
3 21 168124
21 15 19591
15 6 10550
